unsat
((set-logic NIA)
(declare-fun s!0 () Int)
(declare-fun q!3 () Int)
(declare-fun b!2 () Int)
(declare-fun p!5 () Int)
(declare-fun a!4 () Int)
(declare-fun r!1 () Int)
(proof
(let ((?x840 (* p00 b00 s!0)))
 (let ((?x814 (* s00 a00 q!3)))
 (let ((?x110 (* q00 r00 b!2)))
 (let ((?x774 (+ ?x110 (* (- 1) (* p00 s00 b!2)) (* (- 1) (* q00 a00 s!0)) ?x814 (* (- 1) (* r00 b00 q!3)) ?x840)))
 (let (($x852 (>= ?x774 0)))
 (let (($x762 (= ?x774 0)))
 (let ((?x453 (* q00 a00 r!1)))
 (let ((?x775 (* (- 1) ?x453)))
 (let ((?x273 (* p00 s00 a!4)))
 (let ((?x813 (* (- 1) ?x273)))
 (let ((?x241 (* q00 r00 a!4)))
 (let ((?x221 (* s00 a00 p!5)))
 (let ((?x209 (* p00 b00 r!1)))
 (let ((?x185 (* r00 b00 p!5)))
 (let ((?x778 (* (- 1) ?x185)))
 (let ((?x383 (* (- 1) p!5)))
 (let ((?x841 (+ q!3 ?x383)))
 (let ((?x217 (+ (* (- 1) a!4) b!2)))
 (let ((?x323 (+ (* (- 1) r!1) s!0)))
 (let ((?x748 (* ?x323 ?x323 ?x323 ?x323 ?x323 ?x323 ?x323 ?x323 ?x323 ?x217 ?x217 ?x217 ?x217 ?x217 ?x217 ?x217 ?x841 ?x841 ?x841 ?x841 ?x841 ?x841 ?x841 ?x841 ?x841 (+ ?x778 ?x209 ?x221 ?x241 ?x813 ?x775) r!1 r!1 r!1 r!1 r!1 r!1 r!1 r!1 a!4 a!4 a!4 p!5 p!5 p!5)))
 (let (($x767 (= ?x748 0)))
 (let ((?x828 (* r00 b00 q!3)))
 (let ((?x802 (* q00 a00 s!0)))
 (let ((?x404 (* p00 s00 b!2)))
 (let ((?x734 (+ (* (- 1) ?x110) ?x778 ?x209 ?x221 ?x241 ?x813 ?x404 ?x775 ?x802 (* (- 1) ?x814) ?x828 (* (- 1) ?x840))))
 (let ((?x370 (* (- 1) q!3)))
 (let ((?x760 (+ ?x370 p!5)))
 (let ((?x367 (+ a!4 (* (- 1) b!2))))
 (let ((?x147 (+ r!1 (* (- 1) s!0))))
 (let ((?x729 (* ?x147 ?x147 ?x147 ?x147 ?x147 ?x147 ?x147 ?x147 ?x367 ?x367 ?x367 ?x760 ?x760 ?x760 ?x734 s!0 s!0 s!0 s!0 s!0 s!0 s!0 s!0 s!0 b!2 b!2 b!2 b!2 b!2 b!2 b!2 q!3 q!3 q!3 q!3 q!3 q!3 q!3 q!3 q!3)))
 (let (($x749 (= ?x729 0)))
 (let (($x728 (not $x749)))
 (let (($x737 (or $x728 (not $x767))))
 (let ((?x839 (+ ?x185 (* (- 1) ?x209) (* (- 1) ?x221) (* (- 1) ?x241) ?x273 ?x453)))
 (let (($x827 (= ?x839 0)))
 (let ((?x127 (* q00 a00)))
 (let ((?x350 (+ ?x127 (* (- 1) (* p00 b00)) (* b!2 p!5) (* (- 1) (* a!4 q!3)))))
 (let ((?x123 (* s00 a00)))
 (let ((?x830 (+ ?x123 (* (- 1) (* r00 b00)) (* r!1 b!2) (* (- 1) (* a!4 s!0)))))
 (let ((?x41 (* q00 r00)))
 (let ((?x133 (* (- 1) ?x41)))
 (let ((?x37 (* p00 s00)))
 (let (($x732 (and (= (+ ?x37 ?x133 (* (- 1) (* p!5 s!0)) (* r!1 q!3)) 0) (= ?x830 0) (= ?x350 0) $x827 $x762 $x737)))
 (let ((?x781 (* s!0 q00 a00)))
 (let ((?x833 (* q!3 r00 b00)))
 (let ((?x450 (* r!1 q00 a00)))
 (let ((?x437 (* (- 1) ?x450)))
 (let ((?x354 (* p!5 s00 a00)))
 (let ((?x140 (* r!1 p00 b00)))
 (let ((?x139 (* p!5 r00 b00)))
 (let ((?x150 (* (- 1) ?x139)))
 (let ((?x848 (* b!2 p00 s00)))
 (let ((?x424 (* a!4 q00 r00)))
 (let ((?x423 (* a!4 p00 s00)))
 (let ((?x112 (* (- 1) ?x423)))
 (let ((?x784 (+ ?x112 ?x424 (* (- 1) (* b!2 q00 r00)) ?x848 ?x150 ?x140 ?x354 ?x437 (* (- 1) (* s!0 p00 b00)) ?x833 (* (- 1) (* q!3 s00 a00)) ?x781)))
 (let ((?x294 (+ p!5 ?x370)))
 (let ((?x782 (* ?x147 ?x147 ?x147 ?x147 ?x147 ?x147 ?x147 ?x147 ?x367 ?x367 ?x367 ?x294 ?x294 ?x294 ?x784 s!0 s!0 s!0 s!0 s!0 s!0 s!0 s!0 s!0 b!2 b!2 b!2 b!2 b!2 b!2 b!2 q!3 q!3 q!3 q!3 q!3 q!3 q!3 q!3 q!3)))
 (let ((?x199 (+ ?x383 q!3)))
 (let ((?x307 (* ?x323 ?x323 ?x323 ?x323 ?x323 ?x323 ?x323 ?x323 ?x323 ?x217 ?x217 ?x217 ?x217 ?x217 ?x217 ?x217 ?x199 ?x199 ?x199 ?x199 ?x199 ?x199 ?x199 ?x199 ?x199 (+ ?x112 ?x424 ?x150 ?x140 ?x354 ?x437) r!1 r!1 r!1 r!1 r!1 r!1 r!1 r!1 a!4 a!4 a!4 p!5 p!5 p!5)))
 (let ((?x783 (* q!3 s00 a00)))
 (let ((?x835 (* s!0 p00 b00)))
 (let ((?x847 (* b!2 q00 r00)))
 (let (($x766 (= (+ ?x847 (* (- 1) ?x848) ?x835 (* (- 1) ?x833) ?x783 (* (- 1) ?x781)) 0)))
 (let (($x849 (= (+ ?x423 (* (- 1) ?x424) ?x139 (* (- 1) ?x140) (* (- 1) ?x354) ?x450) 0)))
 (let ((?x128 (* p00 b00)))
 (let ((?x171 (* (- 1) ?x127)))
 (let ((?x798 (* a!4 q!3)))
 (let ((?x141 (* r00 b00)))
 (let ((?x130 (* (- 1) ?x123)))
 (let ((?x800 (* a!4 s!0)))
 (let (($x124 (= (+ (* p!5 s!0) (* (- 1) ?x37) ?x41 (* (- 1) (* q!3 r!1))) 0)))
 (let (($x807 (and $x124 (= (+ ?x800 (* (- 1) (* b!2 r!1)) ?x130 ?x141) 0) (= (+ ?x798 ?x171 ?x128 (* (- 1) (* p!5 b!2))) 0) $x849 $x766 (or (not (= ?x307 0)) (not (= ?x782 0))))))
 (let (($x197 (exists ((p Int) (a Int) (q Int) (b Int) (r Int) (s Int) )(! (let ((?x291 (* s q00 a00)))
 (let ((?x280 (* q s00 a00)))
 (let ((?x384 (* (- 1) ?x280)))
 (let ((?x246 (* q r00 b00)))
 (let ((?x245 (* s p00 b00)))
 (let ((?x349 (* (- 1) ?x245)))
 (let ((?x216 (* r q00 a00)))
 (let ((?x222 (* (- 1) ?x216)))
 (let ((?x205 (* p s00 a00)))
 (let ((?x202 (* r p00 b00)))
 (let ((?x182 (* p r00 b00)))
 (let ((?x183 (* (- 1) ?x182)))
 (let ((?x76 (* b p00 s00)))
 (let ((?x72 (* b q00 r00)))
 (let ((?x364 (* (- 1) ?x72)))
 (let ((?x66 (* a q00 r00)))
 (let ((?x63 (* a p00 s00)))
 (let ((?x191 (* (- 1) ?x63)))
 (let ((?x249 (* (- 1) q)))
 (let ((?x251 (+ p ?x249)))
 (let ((?x272 (+ a (* (- 1) b))))
 (let ((?x332 (+ r (* (- 1) s))))
 (let ((?x746 (* ?x332 ?x332 ?x332 ?x332 ?x332 ?x332 ?x332 ?x332 ?x272 ?x272 ?x272 ?x251 ?x251 ?x251 (+ ?x191 ?x66 ?x364 ?x76 ?x183 ?x202 ?x205 ?x222 ?x349 ?x246 ?x384 ?x291) s s s s s s s s s b b b b b b b q q q q q q q q q)))
 (let ((?x228 (+ ?x191 ?x66 ?x183 ?x202 ?x205 ?x222)))
 (let ((?x281 (* (- 1) p)))
 (let ((?x288 (+ ?x281 q)))
 (let ((?x252 (* (- 1) a)))
 (let ((?x266 (+ ?x252 b)))
 (let ((?x299 (* (- 1) r)))
 (let ((?x310 (+ ?x299 s)))
 (let ((?x296 (* ?x310 ?x310 ?x310 ?x310 ?x310 ?x310 ?x310 ?x310 ?x310 ?x266 ?x266 ?x266 ?x266 ?x266 ?x266 ?x266 ?x288 ?x288 ?x288 ?x288 ?x288 ?x288 ?x288 ?x288 ?x288 ?x228 r r r r r r r r a a a p p p)))
 (let (($x308 (= (+ ?x72 (* (- 1) ?x76) ?x245 (* (- 1) ?x246) ?x280 (* (- 1) ?x291)) 0)))
 (let (($x240 (= (+ ?x63 (* (- 1) ?x66) ?x182 (* (- 1) ?x202) (* (- 1) ?x205) ?x216) 0)))
 (let ((?x128 (* p00 b00)))
 (let ((?x127 (* q00 a00)))
 (let ((?x171 (* (- 1) ?x127)))
 (let (($x174 (= (+ (* a q) ?x171 ?x128 (* (- 1) (* p b))) 0)))
 (let ((?x141 (* r00 b00)))
 (let ((?x123 (* s00 a00)))
 (let ((?x130 (* (- 1) ?x123)))
 (let ((?x49 (* a s)))
 (let (($x156 (= (+ ?x49 (* (- 1) (* b r)) ?x130 ?x141) 0)))
 (let ((?x41 (* q00 r00)))
 (let ((?x37 (* p00 s00)))
 (let ((?x132 (* (- 1) ?x37)))
 (let ((?x33 (* p s)))
 (let (($x151 (= (+ ?x33 ?x132 ?x41 (* (- 1) (* q r))) 0)))
 (and $x151 $x156 $x174 $x240 $x308 (or (not (= ?x296 0)) (not (= ?x746 0))))))))))))))))))))))))))))))))))))))))))))))))))) :qid k!39))
 ))
 (let (($x401 (exists ((p Int) (a Int) (q Int) (b Int) (r Int) (s Int) )(! (let ((?x234 (+ (* (- 1) (* b00 r00 (+ p (* (- 1) q)))) (* (- 1) (* p00 s00 (+ a (* (- 1) b)))) (* b00 p00 (+ r (* (- 1) s))) (* q00 r00 (+ a (* (- 1) b))) (* a00 s00 (+ p (* (- 1) q))) (* (- 1) (* a00 q00 (+ r (* (- 1) s)))))))
 (let ((?x249 (* (- 1) q)))
 (let ((?x251 (+ p ?x249)))
 (let ((?x272 (+ a (* (- 1) b))))
 (let ((?x332 (+ r (* (- 1) s))))
 (let ((?x136 (* ?x332 ?x332 ?x332 ?x332 ?x332 ?x332 ?x332 ?x332 ?x272 ?x272 ?x272 ?x251 ?x251 ?x251 ?x234 s s s s s s s s s b b b b b b b q q q q q q q q q)))
 (let ((?x138 (* a00 s00 p)))
 (let ((?x131 (* q00 r00 a)))
 (let ((?x65 (* b00 p00 r)))
 (let ((?x318 (+ (* (- 1) (* b00 r00 p)) (* (- 1) (* p00 s00 a)) ?x65 ?x131 ?x138 (* (- 1) (* a00 q00 r)))))
 (let ((?x281 (* (- 1) p)))
 (let ((?x428 (+ q ?x281)))
 (let ((?x252 (* (- 1) a)))
 (let ((?x402 (+ b ?x252)))
 (let ((?x299 (* (- 1) r)))
 (let ((?x433 (+ s ?x299)))
 (let ((?x382 (* ?x433 ?x433 ?x433 ?x433 ?x433 ?x433 ?x433 ?x433 ?x433 ?x402 ?x402 ?x402 ?x402 ?x402 ?x402 ?x402 ?x428 ?x428 ?x428 ?x428 ?x428 ?x428 ?x428 ?x428 ?x428 ?x318 r r r r r r r r a a a p p p)))
 (let (($x338 (or (not (= ?x382 0)) (not (= ?x136 0)))))
 (let ((?x73 (* b00 p00 s)))
 (let ((?x374 (+ (* q00 r00 b) ?x73 (* (- 1) (* b00 r00 q)) (* (- 1) (* p00 s00 b)) (* a00 s00 q) (* (- 1) (* a00 q00 s)))))
 (let (($x265 (= ?x374 0)))
 (let ((?x69 (* a00 q00 r)))
 (let ((?x208 (* p00 s00 a)))
 (let ((?x179 (* b00 r00 p)))
 (let (($x120 (= (+ ?x179 ?x208 (* (- 1) ?x65) (* (- 1) ?x131) (* (- 1) ?x138) ?x69) 0)))
 (let ((?x57 (* b00 p00)))
 (let ((?x223 (* q a)))
 (let (($x379 (= (+ ?x223 (* (- 1) (* a00 q00)) ?x57 (* (- 1) (* b p))) 0)))
 (let ((?x47 (* a00 s00)))
 (let ((?x410 (* r b)))
 (let (($x435 (= (+ ?x410 ?x47 (* (- 1) (* s a)) (* (- 1) (* b00 r00))) 0)))
 (let ((?x41 (* q00 r00)))
 (let ((?x133 (* (- 1) ?x41)))
 (let ((?x37 (* p00 s00)))
 (let ((?x347 (* r q)))
 (and (= (+ ?x347 (* (- 1) (* s p)) ?x37 ?x133) 0) $x435 $x379 $x120 $x265 $x338)))))))))))))))))))))))))))))))))))) :qid k!39))
 ))
 (let ((?x373 (lambda ((p Int) (a Int) (q Int) (b Int) (r Int) (s Int) )(let ((?x291 (* s q00 a00)))
 (let ((?x280 (* q s00 a00)))
 (let ((?x384 (* (- 1) ?x280)))
 (let ((?x246 (* q r00 b00)))
 (let ((?x245 (* s p00 b00)))
 (let ((?x349 (* (- 1) ?x245)))
 (let ((?x216 (* r q00 a00)))
 (let ((?x222 (* (- 1) ?x216)))
 (let ((?x205 (* p s00 a00)))
 (let ((?x202 (* r p00 b00)))
 (let ((?x182 (* p r00 b00)))
 (let ((?x183 (* (- 1) ?x182)))
 (let ((?x76 (* b p00 s00)))
 (let ((?x72 (* b q00 r00)))
 (let ((?x364 (* (- 1) ?x72)))
 (let ((?x66 (* a q00 r00)))
 (let ((?x63 (* a p00 s00)))
 (let ((?x191 (* (- 1) ?x63)))
 (let ((?x249 (* (- 1) q)))
 (let ((?x251 (+ p ?x249)))
 (let ((?x272 (+ a (* (- 1) b))))
 (let ((?x332 (+ r (* (- 1) s))))
 (let ((?x746 (* ?x332 ?x332 ?x332 ?x332 ?x332 ?x332 ?x332 ?x332 ?x272 ?x272 ?x272 ?x251 ?x251 ?x251 (+ ?x191 ?x66 ?x364 ?x76 ?x183 ?x202 ?x205 ?x222 ?x349 ?x246 ?x384 ?x291) s s s s s s s s s b b b b b b b q q q q q q q q q)))
 (let ((?x228 (+ ?x191 ?x66 ?x183 ?x202 ?x205 ?x222)))
 (let ((?x281 (* (- 1) p)))
 (let ((?x288 (+ ?x281 q)))
 (let ((?x252 (* (- 1) a)))
 (let ((?x266 (+ ?x252 b)))
 (let ((?x299 (* (- 1) r)))
 (let ((?x310 (+ ?x299 s)))
 (let ((?x296 (* ?x310 ?x310 ?x310 ?x310 ?x310 ?x310 ?x310 ?x310 ?x310 ?x266 ?x266 ?x266 ?x266 ?x266 ?x266 ?x266 ?x288 ?x288 ?x288 ?x288 ?x288 ?x288 ?x288 ?x288 ?x288 ?x228 r r r r r r r r a a a p p p)))
 (let (($x308 (= (+ ?x72 (* (- 1) ?x76) ?x245 (* (- 1) ?x246) ?x280 (* (- 1) ?x291)) 0)))
 (let (($x240 (= (+ ?x63 (* (- 1) ?x66) ?x182 (* (- 1) ?x202) (* (- 1) ?x205) ?x216) 0)))
 (let ((?x128 (* p00 b00)))
 (let ((?x127 (* q00 a00)))
 (let ((?x171 (* (- 1) ?x127)))
 (let (($x174 (= (+ (* a q) ?x171 ?x128 (* (- 1) (* p b))) 0)))
 (let ((?x141 (* r00 b00)))
 (let ((?x123 (* s00 a00)))
 (let ((?x130 (* (- 1) ?x123)))
 (let ((?x49 (* a s)))
 (let (($x156 (= (+ ?x49 (* (- 1) (* b r)) ?x130 ?x141) 0)))
 (let ((?x41 (* q00 r00)))
 (let ((?x37 (* p00 s00)))
 (let ((?x132 (* (- 1) ?x37)))
 (let ((?x33 (* p s)))
 (let (($x151 (= (+ ?x33 ?x132 ?x41 (* (- 1) (* q r))) 0)))
 (let (($x911 (and $x151 $x156 $x174 $x240 $x308 (or (not (= ?x296 0)) (not (= ?x746 0))))))
 (let ((?x234 (+ (* (- 1) (* b00 r00 ?x251)) (* (- 1) (* p00 s00 ?x272)) (* b00 p00 ?x332) (* q00 r00 ?x272) (* a00 s00 ?x251) (* (- 1) (* a00 q00 ?x332)))))
 (let ((?x136 (* ?x332 ?x332 ?x332 ?x332 ?x332 ?x332 ?x332 ?x332 ?x272 ?x272 ?x272 ?x251 ?x251 ?x251 ?x234 s s s s s s s s s b b b b b b b q q q q q q q q q)))
 (let ((?x138 (* a00 s00 p)))
 (let ((?x131 (* q00 r00 a)))
 (let ((?x65 (* b00 p00 r)))
 (let ((?x318 (+ (* (- 1) (* b00 r00 p)) (* (- 1) (* p00 s00 a)) ?x65 ?x131 ?x138 (* (- 1) (* a00 q00 r)))))
 (let ((?x428 (+ q ?x281)))
 (let ((?x402 (+ b ?x252)))
 (let ((?x433 (+ s ?x299)))
 (let ((?x382 (* ?x433 ?x433 ?x433 ?x433 ?x433 ?x433 ?x433 ?x433 ?x433 ?x402 ?x402 ?x402 ?x402 ?x402 ?x402 ?x402 ?x428 ?x428 ?x428 ?x428 ?x428 ?x428 ?x428 ?x428 ?x428 ?x318 r r r r r r r r a a a p p p)))
 (let (($x338 (or (not (= ?x382 0)) (not (= ?x136 0)))))
 (let ((?x73 (* b00 p00 s)))
 (let ((?x374 (+ (* q00 r00 b) ?x73 (* (- 1) (* b00 r00 q)) (* (- 1) (* p00 s00 b)) (* a00 s00 q) (* (- 1) (* a00 q00 s)))))
 (let (($x265 (= ?x374 0)))
 (let ((?x69 (* a00 q00 r)))
 (let ((?x208 (* p00 s00 a)))
 (let ((?x179 (* b00 r00 p)))
 (let (($x120 (= (+ ?x179 ?x208 (* (- 1) ?x65) (* (- 1) ?x131) (* (- 1) ?x138) ?x69) 0)))
 (let ((?x57 (* b00 p00)))
 (let ((?x223 (* q a)))
 (let (($x379 (= (+ ?x223 (* (- 1) (* a00 q00)) ?x57 (* (- 1) (* b p))) 0)))
 (let ((?x47 (* a00 s00)))
 (let ((?x410 (* r b)))
 (let (($x435 (= (+ ?x410 ?x47 (* (- 1) (* s a)) (* (- 1) (* b00 r00))) 0)))
 (let (($x324 (= (+ (* r q) (* (- 1) (* s p)) ?x37 (* (- 1) ?x41)) 0)))
 (let (($x203 (and $x324 $x435 $x379 $x120 $x265 $x338)))
 (rewrite (= $x203 $x911)))))))))))))))))))))))))))))))))))))))))))))))))))))))))))))))))))))))))))))
 ))
 (let (($x168 (exists ((p Int) (a Int) (q Int) (b Int) (r Int) (s Int) )(! (let ((?x234 (+ (* (- 1) (* b00 r00 (+ p (* (- 1) q)))) (* (- 1) (* p00 s00 (+ a (* (- 1) b)))) (* b00 p00 (+ r (* (- 1) s))) (* q00 r00 (+ a (* (- 1) b))) (* a00 s00 (+ p (* (- 1) q))) (* (- 1) (* a00 q00 (+ r (* (- 1) s)))))))
 (let ((?x249 (* (- 1) q)))
 (let ((?x251 (+ p ?x249)))
 (let ((?x272 (+ a (* (- 1) b))))
 (let ((?x332 (+ r (* (- 1) s))))
 (let ((?x136 (* ?x332 ?x332 ?x332 ?x332 ?x332 ?x332 ?x332 ?x332 ?x272 ?x272 ?x272 ?x251 ?x251 ?x251 ?x234 s s s s s s s s s b b b b b b b q q q q q q q q q)))
 (let ((?x138 (* a00 s00 p)))
 (let ((?x131 (* q00 r00 a)))
 (let ((?x65 (* b00 p00 r)))
 (let ((?x318 (+ (* (- 1) (* b00 r00 p)) (* (- 1) (* p00 s00 a)) ?x65 ?x131 ?x138 (* (- 1) (* a00 q00 r)))))
 (let ((?x281 (* (- 1) p)))
 (let ((?x428 (+ q ?x281)))
 (let ((?x252 (* (- 1) a)))
 (let ((?x402 (+ b ?x252)))
 (let ((?x299 (* (- 1) r)))
 (let ((?x433 (+ s ?x299)))
 (let ((?x382 (* ?x433 ?x433 ?x433 ?x433 ?x433 ?x433 ?x433 ?x433 ?x433 ?x402 ?x402 ?x402 ?x402 ?x402 ?x402 ?x402 ?x428 ?x428 ?x428 ?x428 ?x428 ?x428 ?x428 ?x428 ?x428 ?x318 r r r r r r r r a a a p p p)))
 (let (($x338 (or (not (= ?x382 0)) (not (= ?x136 0)))))
 (let ((?x73 (* b00 p00 s)))
 (let ((?x374 (+ (* q00 r00 b) ?x73 (* (- 1) (* b00 r00 q)) (* (- 1) (* p00 s00 b)) (* a00 s00 q) (* (- 1) (* a00 q00 s)))))
 (let (($x265 (= ?x374 0)))
 (let ((?x59 (* b p)))
 (let ((?x55 (* a00 q00)))
 (let (($x225 (= (+ (* (- 1) (* q a)) ?x55 (* (- 1) (* b00 p00)) ?x59) 0)))
 (let ((?x51 (* b00 r00)))
 (let ((?x198 (* s a)))
 (let (($x213 (= (+ (* (- 1) (* r b)) (* (- 1) (* a00 s00)) ?x198 ?x51) 0)))
 (let ((?x41 (* q00 r00)))
 (let ((?x37 (* p00 s00)))
 (let ((?x132 (* (- 1) ?x37)))
 (let ((?x333 (* s p)))
 (and (= (+ (* (- 1) (* r q)) ?x333 ?x132 ?x41) 0) $x213 $x225 (= ?x318 0) $x265 $x338)))))))))))))))))))))))))))))))) :qid k!39))
 ))
 (let ((?x187 (lambda ((p Int) (a Int) (q Int) (b Int) (r Int) (s Int) )(let ((?x234 (+ (* (- 1) (* b00 r00 (+ p (* (- 1) q)))) (* (- 1) (* p00 s00 (+ a (* (- 1) b)))) (* b00 p00 (+ r (* (- 1) s))) (* q00 r00 (+ a (* (- 1) b))) (* a00 s00 (+ p (* (- 1) q))) (* (- 1) (* a00 q00 (+ r (* (- 1) s)))))))
 (let ((?x249 (* (- 1) q)))
 (let ((?x251 (+ p ?x249)))
 (let ((?x272 (+ a (* (- 1) b))))
 (let ((?x332 (+ r (* (- 1) s))))
 (let ((?x136 (* ?x332 ?x332 ?x332 ?x332 ?x332 ?x332 ?x332 ?x332 ?x272 ?x272 ?x272 ?x251 ?x251 ?x251 ?x234 s s s s s s s s s b b b b b b b q q q q q q q q q)))
 (let ((?x138 (* a00 s00 p)))
 (let ((?x131 (* q00 r00 a)))
 (let ((?x65 (* b00 p00 r)))
 (let ((?x318 (+ (* (- 1) (* b00 r00 p)) (* (- 1) (* p00 s00 a)) ?x65 ?x131 ?x138 (* (- 1) (* a00 q00 r)))))
 (let ((?x281 (* (- 1) p)))
 (let ((?x428 (+ q ?x281)))
 (let ((?x252 (* (- 1) a)))
 (let ((?x402 (+ b ?x252)))
 (let ((?x299 (* (- 1) r)))
 (let ((?x433 (+ s ?x299)))
 (let ((?x382 (* ?x433 ?x433 ?x433 ?x433 ?x433 ?x433 ?x433 ?x433 ?x433 ?x402 ?x402 ?x402 ?x402 ?x402 ?x402 ?x402 ?x428 ?x428 ?x428 ?x428 ?x428 ?x428 ?x428 ?x428 ?x428 ?x318 r r r r r r r r a a a p p p)))
 (let (($x338 (or (not (= ?x382 0)) (not (= ?x136 0)))))
 (let ((?x73 (* b00 p00 s)))
 (let ((?x374 (+ (* q00 r00 b) ?x73 (* (- 1) (* b00 r00 q)) (* (- 1) (* p00 s00 b)) (* a00 s00 q) (* (- 1) (* a00 q00 s)))))
 (let (($x265 (= ?x374 0)))
 (let ((?x69 (* a00 q00 r)))
 (let ((?x208 (* p00 s00 a)))
 (let ((?x179 (* b00 r00 p)))
 (let (($x120 (= (+ ?x179 ?x208 (* (- 1) ?x65) (* (- 1) ?x131) (* (- 1) ?x138) ?x69) 0)))
 (let ((?x57 (* b00 p00)))
 (let ((?x223 (* q a)))
 (let (($x379 (= (+ ?x223 (* (- 1) (* a00 q00)) ?x57 (* (- 1) (* b p))) 0)))
 (let ((?x47 (* a00 s00)))
 (let ((?x410 (* r b)))
 (let (($x435 (= (+ ?x410 ?x47 (* (- 1) (* s a)) (* (- 1) (* b00 r00))) 0)))
 (let ((?x41 (* q00 r00)))
 (let ((?x133 (* (- 1) ?x41)))
 (let ((?x37 (* p00 s00)))
 (let ((?x347 (* r q)))
 (let (($x203 (and (= (+ ?x347 (* (- 1) (* s p)) ?x37 ?x133) 0) $x435 $x379 $x120 $x265 $x338)))
 (let (($x225 (= (+ (* (- 1) ?x223) (* a00 q00) (* (- 1) ?x57) (* b p)) 0)))
 (let (($x213 (= (+ (* (- 1) ?x410) (* (- 1) ?x47) (* s a) (* b00 r00)) 0)))
 (let (($x284 (and (= (+ (* (- 1) ?x347) (* s p) (* (- 1) ?x37) ?x41) 0) $x213 $x225 (= ?x318 0) $x265 $x338)))
 (rewrite (= $x284 $x203))))))))))))))))))))))))))))))))))))))))))
 ))
 (let (($x107 (exists ((p Int) (a Int) (q Int) (b Int) (r Int) (s Int) )(! (let ((?x101 (- s r)))
 (let ((?x100 (- q p)))
 (let ((?x99 (- b a)))
 (let ((?x31 (- 1)))
 (let ((?x69 (* a00 q00 r)))
 (let ((?x66 (* a q00 r00)))
 (let ((?x65 (* b00 p00 r)))
 (let ((?x68 (+ (- (* ?x31 b00 p r00) (* a p00 s00)) ?x65 ?x66 (* a00 p s00))))
 (let ((?x70 (- ?x68 ?x69)))
 (let ((?x102 (* ?x70 ?x99 ?x99 ?x99 p ?x100 r r r ?x101 ?x101 ?x101 a a ?x99 ?x99 ?x100 ?x100 ?x100 r ?x101 a ?x99 p ?x100 ?x100 ?x100 r ?x101 ?x101 ?x31 ?x99 p ?x100 ?x100 r r r ?x101 ?x101 ?x101)))
 (let ((?x89 (- r s)))
 (let ((?x84 (- p q)))
 (let ((?x86 (- a b)))
 (let ((?x93 (+ (- (* ?x31 b00 ?x84 r00) (* ?x86 p00 s00)) (* b00 p00 ?x89) (* ?x86 q00 r00) (* a00 ?x84 s00))))
 (let ((?x96 (* (- ?x93 (* a00 q00 ?x89)) b b b ?x84 q ?x89 ?x89 ?x89 s s s ?x86 ?x86 b b q q q ?x89 s ?x86 b ?x84 q q q ?x89 s s ?x31 b ?x84 q q ?x89 ?x89 ?x89 s s s)))
 (let ((?x81 (* a00 q00 s)))
 (let ((?x76 (* b p00 s00)))
 (let ((?x77 (- (+ (* b q00 r00) (* b00 p00 s)) (* b00 q r00))))
 (let ((?x59 (* b p)))
 (let ((?x60 (+ (- (+ (* ?x31 a q) (* a00 q00)) (* b00 p00)) ?x59)))
 (let ((?x51 (* b00 r00)))
 (let ((?x49 (* a s)))
 (let ((?x41 (* q00 r00)))
 (let (($x44 (= (+ (- (+ (* ?x31 q r) (* p s)) (* p00 s00)) ?x41) 0)))
 (and $x44 (= (+ (- (* ?x31 b r) (* a00 s00)) ?x49 ?x51) 0) (= ?x60 0) (= ?x70 0) (= (- (+ (- ?x77 ?x76) (* a00 q s00)) ?x81) 0) (or (not (= ?x96 0)) (not (= ?x102 0)))))))))))))))))))))))))))) :qid k!39))
 ))
 (let ((?x170 (lambda ((p Int) (a Int) (q Int) (b Int) (r Int) (s Int) )(let ((?x234 (+ (* (- 1) (* b00 r00 (+ p (* (- 1) q)))) (* (- 1) (* p00 s00 (+ a (* (- 1) b)))) (* b00 p00 (+ r (* (- 1) s))) (* q00 r00 (+ a (* (- 1) b))) (* a00 s00 (+ p (* (- 1) q))) (* (- 1) (* a00 q00 (+ r (* (- 1) s)))))))
 (let ((?x249 (* (- 1) q)))
 (let ((?x251 (+ p ?x249)))
 (let ((?x272 (+ a (* (- 1) b))))
 (let ((?x332 (+ r (* (- 1) s))))
 (let ((?x136 (* ?x332 ?x332 ?x332 ?x332 ?x332 ?x332 ?x332 ?x332 ?x272 ?x272 ?x272 ?x251 ?x251 ?x251 ?x234 s s s s s s s s s b b b b b b b q q q q q q q q q)))
 (let ((?x138 (* a00 s00 p)))
 (let ((?x131 (* q00 r00 a)))
 (let ((?x65 (* b00 p00 r)))
 (let ((?x318 (+ (* (- 1) (* b00 r00 p)) (* (- 1) (* p00 s00 a)) ?x65 ?x131 ?x138 (* (- 1) (* a00 q00 r)))))
 (let ((?x281 (* (- 1) p)))
 (let ((?x428 (+ q ?x281)))
 (let ((?x252 (* (- 1) a)))
 (let ((?x402 (+ b ?x252)))
 (let ((?x299 (* (- 1) r)))
 (let ((?x433 (+ s ?x299)))
 (let ((?x382 (* ?x433 ?x433 ?x433 ?x433 ?x433 ?x433 ?x433 ?x433 ?x433 ?x402 ?x402 ?x402 ?x402 ?x402 ?x402 ?x402 ?x428 ?x428 ?x428 ?x428 ?x428 ?x428 ?x428 ?x428 ?x428 ?x318 r r r r r r r r a a a p p p)))
 (let (($x338 (or (not (= ?x382 0)) (not (= ?x136 0)))))
 (let ((?x73 (* b00 p00 s)))
 (let ((?x374 (+ (* q00 r00 b) ?x73 (* (- 1) (* b00 r00 q)) (* (- 1) (* p00 s00 b)) (* a00 s00 q) (* (- 1) (* a00 q00 s)))))
 (let (($x265 (= ?x374 0)))
 (let ((?x59 (* b p)))
 (let ((?x55 (* a00 q00)))
 (let (($x225 (= (+ (* (- 1) (* q a)) ?x55 (* (- 1) (* b00 p00)) ?x59) 0)))
 (let ((?x51 (* b00 r00)))
 (let ((?x198 (* s a)))
 (let (($x213 (= (+ (* (- 1) (* r b)) (* (- 1) (* a00 s00)) ?x198 ?x51) 0)))
 (let ((?x41 (* q00 r00)))
 (let ((?x37 (* p00 s00)))
 (let ((?x132 (* (- 1) ?x37)))
 (let ((?x333 (* s p)))
 (let (($x284 (and (= (+ (* (- 1) (* r q)) ?x333 ?x132 ?x41) 0) $x213 $x225 (= ?x318 0) $x265 $x338)))
 (let ((?x101 (- s r)))
 (let ((?x100 (- q p)))
 (let ((?x99 (- b a)))
 (let ((?x31 (- 1)))
 (let ((?x69 (* a00 q00 r)))
 (let ((?x66 (* a q00 r00)))
 (let ((?x68 (+ (- (* ?x31 b00 p r00) (* a p00 s00)) ?x65 ?x66 (* a00 p s00))))
 (let ((?x70 (- ?x68 ?x69)))
 (let ((?x102 (* ?x70 ?x99 ?x99 ?x99 p ?x100 r r r ?x101 ?x101 ?x101 a a ?x99 ?x99 ?x100 ?x100 ?x100 r ?x101 a ?x99 p ?x100 ?x100 ?x100 r ?x101 ?x101 ?x31 ?x99 p ?x100 ?x100 r r r ?x101 ?x101 ?x101)))
 (let ((?x89 (- r s)))
 (let ((?x84 (- p q)))
 (let ((?x86 (- a b)))
 (let ((?x93 (+ (- (* ?x31 b00 ?x84 r00) (* ?x86 p00 s00)) (* b00 p00 ?x89) (* ?x86 q00 r00) (* a00 ?x84 s00))))
 (let ((?x96 (* (- ?x93 (* a00 q00 ?x89)) b b b ?x84 q ?x89 ?x89 ?x89 s s s ?x86 ?x86 b b q q q ?x89 s ?x86 b ?x84 q q q ?x89 s s ?x31 b ?x84 q q ?x89 ?x89 ?x89 s s s)))
 (let ((?x81 (* a00 q00 s)))
 (let ((?x76 (* b p00 s00)))
 (let ((?x80 (+ (- (- (+ (* b q00 r00) ?x73) (* b00 q r00)) ?x76) (* a00 q s00))))
 (let (($x53 (= (+ (- (* ?x31 b r) (* a00 s00)) (* a s) ?x51) 0)))
 (let (($x106 (and (= (+ (- (+ (* ?x31 q r) (* p s)) ?x37) ?x41) 0) $x53 (= (+ (- (+ (* ?x31 a q) ?x55) (* b00 p00)) ?x59) 0) (= ?x70 0) (= (- ?x80 ?x81) 0) (or (not (= ?x96 0)) (not (= ?x102 0))))))
 (rewrite (= $x106 $x284))))))))))))))))))))))))))))))))))))))))))))))))))))))
 ))
 (let ((@x108 (asserted $x107)))
 (let ((@x319 (mp (mp @x108 (quant-intro (proof-bind ?x170) (= $x107 $x168)) $x168) (rewrite (= $x168 $x168)) $x168)))
 (let ((@x417 (mp (mp @x319 (quant-intro (proof-bind ?x187) (= $x168 $x401)) $x401) (quant-intro (proof-bind ?x373) (= $x401 $x197)) $x197)))
 (let ((@x912 (mp (mp~ @x417 (sk (~ $x197 $x807)) $x807) (rewrite (= $x807 $x732)) $x732)))
 (let ((@x740 (and-elim @x912 $x762)))
 (let ((@x295 (unit-resolution ((_ th-lemma arith triangle-eq) (or (not $x762) $x852)) @x740 $x852)))
 (let (($x792 (>= ?x839 0)))
 (let ((@x743 (and-elim @x912 $x827)))
 (let ((@x824 (unit-resolution ((_ th-lemma arith triangle-eq) (or (not $x827) $x792)) @x743 $x792)))
 (let (($x853 (<= ?x774 0)))
 (let ((@x430 (unit-resolution ((_ th-lemma arith triangle-eq) (or (not $x762) $x853)) @x740 $x853)))
 (let (($x801 (<= ?x839 0)))
 (let ((@x250 (unit-resolution ((_ th-lemma arith triangle-eq) (or (not $x827) $x801)) @x743 $x801)))
 (let (($x791 (not (<= ?x729 0))))
 (let (($x219 (>= ?x748 0)))
 (let (($x186 (<= ?x748 0)))
 (let ((@x794 (unit-resolution ((_ th-lemma arith triangle-eq) (or $x767 (not $x186) (not $x219))) (lemma ((_ th-lemma arith farkas 1 1 1) (hypothesis (not $x186)) @x250 @x824 false) $x186) (lemma ((_ th-lemma arith farkas 1 1 1) (hypothesis (not $x219)) @x250 @x824 false) $x219) $x767)))
 (let (($x787 (>= ?x729 0)))
 (let ((@x275 (lemma ((_ th-lemma arith farkas 1 1 1 1 1) (hypothesis (not $x787)) @x250 @x430 @x824 @x295 false) $x787)))
 (let ((@x425 (unit-resolution ((_ th-lemma arith triangle-eq) (or $x749 $x791 (not $x787))) @x275 (unit-resolution (and-elim @x912 $x737) @x794 $x728) $x791)))
 ((_ th-lemma arith farkas 1 1 1 1 1) @x425 @x250 @x430 @x824 @x295 false)))))))))))))))))))))))))))))))))))))))))))))))))))))))))))))))))))))))))))))))))))))))))))))))))))))))

(:added-eqs                 14
 :arith-assert-diseq        3
 :arith-assert-lower        23
 :arith-assert-upper        22
 :arith-conflicts           4
 :arith-eq-adapter          11
 :arith-fixed-eqs           10
 :arith-grobner             4
 :arith-max-min             360
 :arith-nonlinear-horner    44
 :arith-num-rows            13
 :arith-pivots              5
 :arith-pseudo-nonlinear    8
 :arith-row-summations      3
 :arith-tableau-max-columns 52
 :arith-tableau-max-rows    13
 :conflicts                 4
 :decisions                 7
 :del-clause                27
 :final-checks              4
 :max-memory                3.71
 :memory                    3.14
 :mk-bool-var               39
 :mk-clause                 40
 :num-allocs                2247414
 :num-checks                1
 :propagations              19
 :rlimit-count              10193
 :time                      0.02
 :total-time                0.03)
